FeO Wustite in LDA
 &control
    calculation = 'bands'
    restart_mode='from_scratch',
    prefix='feo_af',
    pseudo_dir = '.',
    outdir='.'
    tprnfor = .true., tstress=.true.
 /
 &system
    ibrav=  0, celldm(1)=8.19, nat=  4, ntyp= 2,
    ecutwfc = 30.0, ecutrho = 240.0, nbnd=24,
    starting_magnetization(1)= 0.0,
    starting_magnetization(2)= 0.5,
    starting_magnetization(3)=-0.5,
    occupations='smearing', smearing='mv', degauss=0.01,
    nspin=2,
    lda_plus_u=.true.  Hubbard_U(2)=1.d-8
 /
 &electrons
    mixing_mode = 'plain'
    mixing_beta = 0.3
    conv_thr =  1.0d-6
    mixing_fixed_ns = 0
 /
CELL_PARAMETERS alat
0.50 0.50 1.00
0.50 1.00 0.50
1.00 0.50 0.50

ATOMIC_SPECIES
 O   1.  O.pz-rrkjus.UPF
 Fe  1.  Fe.pz-nd-rrkjus.UPF

ATOMIC_POSITIONS {crystal}
 O  0.25 0.25 0.25
 O  0.75 0.75 0.75
 Fe 0.0  0.0  0.0
 Fe 0.5  0.5  0.5

K_POINTS {crystal_b}
6
 0.00      0.00     0.00      30  !\Gamma
 0.00      0.50     0.00      30  !L
 0.34375   0.8125   0.34375   30  !K'
 0.50      0.50     0.50      30  !T
 0.00      0.00     0.00      30  !\Gamma
 0.00      0.50     0.50      30  !X
