&bands
    prefix = 'feo_af'
    outdir = '.'
    lsym = .FALSE.
    filband = 'bands.dat'
 /

