 &projwfc
    prefix = 'feo_af',
    outdir = '.',
    lsym = .FALSE.,
    filproj = 'bands'
 /
