 &projwfc
    prefix = 'MoS2',
    outdir = '.',
    lsym = .FALSE.,
    filproj = 'bands'
 /
