 &control
    calculation                =  'bands'
    prefix                     =  'Fe'
    pseudo_dir                 =  '.'
    outdir                     =  '.'
 /
 &system    
    ibrav                      =   3
    celldm(1)                  =   5.42
    nat                        =   1
    ntyp                       =   1
    nr1                        =   27
    nr2                        =   27
    nr3                        =   27
    noncolin                   =  .true.
    lspinorb                   =  .true.
    occupations                =  'smearing'
    starting_magnetization(1)  =   0.5
    occupations                =  'smearing'
    smearing                   =  'mv'
    degauss                    =   0.04
    ecutwfc                    =   30 
    ecutrho                    =   300.0
 /
 &electrons
    conv_thr                   =   1.0d-10
 /
ATOMIC_SPECIES
Fe  0.0    Fe.rel-pbe-kjpaw.UPF

ATOMIC_POSITIONS alat
Fe  0.00  0.00  0.00  

K_POINTS crystal_b
3
    0.0000000000     0.0000000000     0.0000000000   49  !\Gamma
    0.5000000000    -0.5000000000     0.5000000000   49  !H
    0.0000000000     0.0000000000     0.0000000000    0  !\Gamma
