 &bands
    prefix  = 'Pt'
    outdir  = '.'
    filband = 'bands.dat'
    lsym    =.false.
 /


