&projwfc
   outdir='.',
   prefix='Pt',
   filproj='bands'
   lsym = .false.
/
