&bands
    prefix = 'LiF'
    outdir = '.'
    lsym = .FALSE.
    filband = 'bands.dat'
 /

