 &projwfc
    prefix = 'LiF',
    outdir = '.',
    lsym = .FALSE.,
    filproj = 'bands'
 /
