 &control
    calculation                =  'bands'
    prefix                     =  'Fe'
    pseudo_dir                 =  '.'
    outdir                     =  '.'
 /
 &system    
    ibrav                      =   3
    celldm(1)                  =   5.42
    nat                        =   1
    ntyp                       =   1
    nspin                      =   2
    starting_magnetization(1)  =   0.5
    occupations                =  'smearing'
    smearing                   =  'mv'
    degauss                    =   0.2
    ecutwfc                    =   30
    nosym                      =   .true.
 /
 &electrons
    conv_thr                   =   1.0d-10
 /
ATOMIC_SPECIES
Fe  0.0    Fe.pbe-n-kjpaw_psl.1.0.0.UPF
ATOMIC_POSITIONS alat
Fe  0.00  0.00  0.00  
K_POINTS crystal_b
3
    0.0000000000     0.0000000000     0.0000000000   49  !\Gamma
    0.0000000000     0.0000000000     0.5000000000   49  !N 
    0.0000000000     0.0000000000     0.0000000000    0  !\Gamma
