 &projwfc
    prefix = 'Fe',
    outdir = '.',
    lsym = .FALSE.,
    filproj = 'bands'
 /
