 &control
    calculation                =  'scf'
    prefix                     =  'Fe'
    pseudo_dir                 =  '.'
    outdir                     =  '.'
 /
 &system    
    ibrav                      =   3
    celldm(1)                  =   5.42
    nat                        =   1
    ntyp                       =   1
    nspin                      =   2
    starting_magnetization(1)  =   0.5
    occupations                =  'smearing'
    smearing                   =  'mv'
    degauss                    =   0.2
    ecutwfc                    =   30
    nosym                      =   .true.
 /
 &electrons
    conv_thr                   =   1.0d-10
    mixing_beta                =   0.3
 /
ATOMIC_SPECIES
Fe  0.0    Fe.pz-nd-rrkjus.UPF
ATOMIC_POSITIONS alat
Fe  0.00  0.00  0.00  
K_POINTS AUTOMATIC
6 6 6  0 0 0